100
186 813 159 620 1861 2 846 1600 189 1075 1511 977 1756 1983 1553 94 1583 411 1402 797 596 563 1762 794 163 1795 1578 684 1420 288 840 532 74 320 645 568 524 963 1747 1940 1827 906 475 791 92 1602 866 578 1381 1337 844 1525 48 1118 1217 1775 1469 589 1444 303 621 289 1569 1432 1810 1746 230 376 669 1868 582 1997 855 1319 941 933 1017 327 1832 515 1618 1289 740 1547 252 829 449 876 1817 690 1123 799 263 1314 602 628 1593 978 1001 1369 
